1
1000
42
128 1
129 3
130 1
131 2
132 2
90 2
91 1
92 3
93 5
94 1
95 3
96 4
97 3
98 4
99 1
100 4
101 3
102 3
103 3
104 1
105 2
106 1
107 5
108 3
109 1
110 3
111 1
113 3
114 2
115 2
116 1
117 5
118 3
119 3
120 2
121 1
122 2
123 1
124 3
125 2
126 2
127 2
